Cost: 1918
0-38-2-4-39-5-7-36-8-40-41-42-43-9-10-60-14-47-6-34-0
0-56-32-29-51-24-23-49-22-59-25-63-52-30-53-31-55-33-0
0-3-28-50-54-27-26-21-48-35-20-19-46-12-44-11-45-15-13-16-17-18-61-1-37-0
Cost: 1918
0-32-51-24-23-49-22-25-63-29-52-30-53-31-55-33-56-0
0-38-2-4-39-5-7-36-8-40-41-42-43-9-10-15-13-16-17-18-61-1-37-0
0-3-50-54-28-27-26-21-48-35-20-19-46-45-12-44-11-60-14-47-6-58-34-0
Cost: 1917
0-38-2-4-39-5-7-10-60-13-16-17-18-61-50-54-28-1-37-0
0-3-15-36-8-40-41-9-42-43-44-11-12-35-20-19-46-45-14-47-6-58-56-0
0-34-32-27-26-21-48-49-22-23-24-25-63-29-52-51-30-53-31-55-33-0
Cost: 1912
0-38-2-3-14-47-6-39-5-7-10-60-13-16-17-18-61-28-50-54-56-0
0-34-32-27-26-21-48-49-22-23-24-25-63-29-52-51-30-53-31-55-33-0
0-4-36-8-40-41-9-42-43-44-11-45-12-35-20-19-46-15-64-1-37-0
Cost: 1918
0-38-3-64-28-50-54-27-26-21-48-35-20-19-46-12-44-11-45-60-14-47-6-58-0
0-34-32-51-24-23-49-22-59-25-29-52-30-53-31-55-33-56-0
0-2-4-39-5-7-36-8-40-41-42-43-9-10-15-13-16-17-18-1-37-0
Cost: 1918
0-38-4-39-5-7-36-8-40-41-42-43-9-10-60-15-13-16-17-18-1-37-0
0-34-56-32-29-51-24-23-49-22-59-25-52-30-53-31-55-33-0
0-2-3-64-28-50-54-27-26-21-48-35-20-19-46-12-44-11-45-14-47-6-58-0
Cost: 1918
0-56-32-29-51-24-23-49-22-25-63-52-30-53-31-55-33-0
0-3-64-28-50-54-27-26-21-48-35-20-19-46-45-12-44-11-14-47-6-58-34-0
0-38-2-4-39-5-7-36-8-40-41-42-43-9-10-15-13-16-17-18-61-1-37-0
Cost: 1918
0-34-56-32-51-24-23-49-22-25-63-29-52-30-53-31-55-33-0
0-38-2-4-39-7-36-8-40-41-9-42-43-10-15-13-16-17-18-1-37-0
0-3-64-61-28-50-54-27-26-21-48-35-20-19-46-45-12-44-11-14-47-5-6-58-0
Cost: 1918
0-38-2-4-39-5-7-36-8-40-41-9-42-43-15-13-16-17-18-1-37-0
0-34-32-51-24-23-49-22-25-63-29-52-30-53-31-55-33-56-0
0-3-64-61-50-54-28-27-26-21-48-35-20-19-46-45-12-44-11-10-14-47-6-58-0
Cost: 1910
0-38-2-4-39-6-5-7-10-60-13-16-17-18-64-61-28-50-54-56-0
0-34-32-27-26-21-48-49-22-23-24-25-63-29-52-51-30-53-31-55-33-0
0-3-14-47-36-8-40-41-9-42-43-44-11-45-12-35-20-19-46-15-1-37-0
Cost: 1918
0-38-2-4-39-5-7-36-8-40-41-9-42-43-10-15-13-16-17-18-61-1-37-0
0-34-56-32-51-24-23-49-22-25-63-29-52-30-53-31-55-33-0
0-3-64-28-50-54-27-26-21-48-35-20-19-46-12-44-11-45-14-47-6-58-0
Cost: 1918
0-38-2-4-39-7-36-8-40-41-9-42-43-10-15-13-16-17-18-61-1-37-0
0-56-32-29-51-24-23-49-22-25-63-52-30-53-31-55-33-0
0-3-64-50-54-28-27-26-21-48-35-20-19-46-45-12-44-11-14-47-5-6-58-34-0
Cost: 1918
0-38-2-4-39-5-7-36-8-40-41-9-42-43-10-15-13-16-17-18-61-1-37-0
0-34-56-32-51-24-23-49-22-25-63-29-52-30-53-31-55-33-0
0-3-64-28-50-54-27-26-21-48-35-20-19-46-12-44-11-45-14-47-6-58-0
Cost: 1918
0-34-32-51-24-23-49-22-59-25-29-52-30-53-31-55-33-0
0-38-3-61-50-54-28-27-26-21-48-35-20-19-46-12-44-11-45-14-47-6-58-56-0
0-2-4-39-5-7-36-8-40-41-9-42-43-10-60-15-13-16-17-18-1-37-0
Cost: 1918
0-38-2-4-39-5-7-36-8-40-41-9-42-43-10-15-13-16-17-18-61-1-37-0
0-34-56-32-51-24-23-49-22-25-63-29-52-30-53-31-55-33-0
0-3-64-28-50-54-27-26-21-48-35-20-19-46-12-44-11-45-14-47-6-58-0
Cost: 1918
0-38-2-4-39-5-7-36-8-40-41-9-42-43-10-15-13-16-17-18-61-1-37-0
0-34-56-32-51-24-23-49-22-25-63-29-52-30-53-31-55-33-0
0-3-64-28-50-54-27-26-21-48-35-20-19-46-12-44-11-45-14-47-6-58-0
Cost: 1918
0-56-32-29-51-24-23-49-22-25-63-52-30-53-31-55-33-0
0-38-3-28-50-54-27-26-21-48-35-20-19-46-12-44-11-45-14-47-6-58-34-0
0-2-4-39-5-7-36-8-40-41-9-42-43-10-60-15-13-16-17-18-61-1-37-0
Cost: 1910
0-34-32-27-26-21-48-49-22-23-24-25-63-29-52-51-30-53-31-55-33-0
0-38-2-4-39-6-5-7-10-60-13-16-17-18-64-61-28-50-54-56-0
0-3-14-47-36-8-40-41-9-42-43-44-11-45-12-35-20-19-46-15-1-37-0
Cost: 1903
0-32-54-28-50-27-26-21-48-49-22-23-24-25-29-52-51-30-53-31-55-33-0
0-38-4-39-7-36-8-40-41-9-10-13-16-17-18-61-1-37-0
0-2-3-64-15-60-42-43-44-11-12-35-20-19-46-45-14-47-5-6-58-34-56-0
Cost: 1918
0-38-2-4-39-5-7-36-8-40-41-9-42-43-10-15-13-16-17-18-61-1-37-0
0-34-56-32-51-24-23-49-22-25-63-29-52-30-53-31-55-33-0
0-3-64-28-50-54-27-26-21-48-35-20-19-46-12-44-11-45-14-47-6-58-0
Cost: 1918
0-38-2-4-39-5-7-36-8-40-41-42-43-9-10-60-14-47-6-58-34-0
0-32-29-51-24-23-49-22-59-25-52-30-53-31-55-33-56-0
0-3-61-50-54-28-27-26-21-48-35-20-19-46-45-12-44-11-15-13-16-17-18-1-37-0
Cost: 1918
0-34-32-29-51-24-23-49-22-59-25-52-30-53-31-55-33-0
0-38-4-39-5-7-36-8-40-41-42-43-9-10-15-13-16-17-18-61-1-37-0
0-2-3-64-50-54-28-27-26-21-48-35-20-19-46-45-12-44-11-14-47-6-58-56-0
Cost: 1918
0-38-2-4-39-5-7-36-8-40-41-42-43-9-10-15-13-16-17-18-61-1-37-0
0-32-29-51-24-23-49-22-25-63-52-30-53-31-55-33-0
0-3-64-50-54-28-27-26-21-48-35-20-19-46-45-12-44-11-14-47-6-58-34-56-0
Cost: 1903
0-2-4-39-5-7-36-8-40-41-9-10-60-14-47-6-58-34-56-0
0-38-3-64-15-42-43-44-11-45-12-35-20-19-46-13-16-17-18-61-1-37-0
0-32-50-54-28-27-26-21-48-49-22-23-24-25-29-52-51-30-53-31-55-33-0
Cost: 1903
0-2-3-64-15-10-42-43-44-11-45-12-35-20-19-46-60-13-16-17-18-61-1-37-0
0-32-28-50-54-27-26-21-48-49-22-23-24-25-29-52-51-30-53-31-55-33-0
0-38-4-39-7-36-8-40-41-9-14-47-5-6-58-34-56-0
Cost: 1918
0-38-2-4-39-7-36-8-40-41-9-42-43-15-13-16-17-18-61-1-37-0
0-34-56-32-29-51-24-23-49-22-59-25-52-30-53-31-55-33-0
0-3-64-28-50-54-27-26-21-48-35-20-19-46-12-44-11-45-10-14-47-5-6-58-0
Cost: 1910
0-38-2-4-39-6-5-7-10-60-13-16-17-18-64-61-28-50-54-56-0
0-34-32-27-26-21-48-49-22-23-24-25-63-29-52-51-30-53-31-55-33-0
0-3-14-47-36-8-40-41-9-42-43-44-11-12-35-20-19-46-45-15-1-37-0
Cost: 1918
0-38-2-4-39-7-36-8-40-41-9-42-43-15-13-16-17-18-61-1-37-0
0-34-56-32-29-51-24-23-49-22-59-25-52-30-53-31-55-33-0
0-3-64-28-50-54-27-26-21-48-35-20-19-46-12-44-11-45-10-14-47-5-6-58-0
Cost: 1918
0-34-32-29-51-24-23-49-22-59-25-52-30-53-31-55-33-0
0-38-4-39-5-7-36-8-40-41-42-43-9-10-15-13-16-17-18-61-1-37-0
0-2-3-64-50-54-28-27-26-21-48-35-20-19-46-45-12-44-11-14-47-6-58-56-0
Cost: 1918
0-38-2-4-39-5-7-36-8-40-41-42-43-9-10-15-13-16-17-18-61-1-37-0
0-32-29-51-24-23-49-22-25-63-52-30-53-31-55-33-0
0-3-64-50-54-28-27-26-21-48-35-20-19-46-45-12-44-11-14-47-6-58-34-56-0
Cost: 1918
0-38-2-4-39-5-7-36-8-40-41-42-43-9-10-15-13-16-17-18-61-1-37-0
0-32-29-51-24-23-49-22-25-63-52-30-53-31-55-33-0
0-3-64-50-54-28-27-26-21-48-35-20-19-46-45-12-44-11-14-47-6-58-34-56-0
Cost: 1910
0-38-2-4-39-6-5-7-10-60-13-16-17-18-64-61-28-50-54-56-0
0-3-14-47-36-8-40-41-9-42-43-44-11-45-12-35-20-19-46-15-1-37-0
0-34-32-27-26-21-48-49-22-23-24-25-63-29-52-51-30-53-31-55-33-0
Cost: 1918
0-34-32-51-24-23-49-22-25-63-29-52-30-53-31-55-33-56-0
0-3-28-50-54-27-26-21-48-35-20-19-46-45-12-44-11-10-60-14-47-6-58-0
0-38-2-4-39-5-7-36-8-40-41-9-42-43-15-13-16-17-18-61-1-37-0
Cost: 1918
0-38-2-4-39-7-36-8-40-41-9-42-43-10-60-15-13-16-17-18-1-37-0
0-34-32-29-51-24-23-49-22-25-63-52-30-53-31-55-33-56-0
0-3-64-28-50-54-27-26-21-48-35-20-19-46-12-44-11-45-14-47-5-6-58-0
Cost: 1918
0-2-3-64-28-50-54-27-26-21-48-35-20-19-46-45-12-44-11-14-47-6-58-34-0
0-32-29-51-24-23-49-22-59-25-52-30-53-31-55-33-56-0
0-38-4-39-5-7-36-8-40-41-42-43-9-10-60-15-13-16-17-18-1-37-0
Cost: 1918
0-3-64-28-50-54-27-26-21-48-35-20-19-46-45-12-44-11-14-47-5-6-58-34-0
0-32-29-51-24-23-49-22-25-63-52-30-53-31-55-33-56-0
0-38-2-4-39-7-36-8-40-41-42-43-9-10-15-13-16-17-18-61-1-37-0
Cost: 1949
0-34-56-32-52-51-24-23-49-22-59-25-29-30-53-31-55-33-0
0-38-2-4-39-5-7-10-36-8-40-41-42-43-9-15-13-16-17-18-1-37-0
0-3-64-28-50-54-27-26-21-48-35-20-19-46-45-12-44-11-60-14-47-6-58-0
Cost: 1918
0-34-56-32-29-51-24-23-49-22-59-25-63-52-30-53-31-55-33-0
0-38-2-4-39-5-7-36-8-40-41-42-43-9-60-14-47-6-58-0
0-3-28-50-54-27-26-21-48-35-20-19-46-45-12-44-11-10-15-13-16-17-18-1-37-0
Cost: 1918
0-3-28-50-54-27-26-21-48-35-20-19-46-45-12-44-11-60-14-47-5-6-58-0
0-38-2-4-39-7-36-8-40-41-9-42-43-10-15-13-16-17-18-61-1-37-0
0-34-32-51-24-23-49-22-25-63-29-52-30-53-31-55-33-56-0
Cost: 1918
0-34-32-51-24-23-49-22-25-29-52-30-53-31-55-33-56-0
0-3-64-28-50-54-27-26-21-48-35-20-19-46-45-12-44-11-60-14-47-5-6-58-0
0-38-2-4-39-7-36-8-40-41-42-43-9-10-15-13-16-17-18-61-1-37-0
Cost: 1918
0-34-32-29-51-24-23-49-22-25-63-52-30-53-31-55-33-56-0
0-38-4-39-7-36-8-40-41-42-43-9-10-15-13-16-17-18-61-1-37-0
0-2-3-64-28-50-54-27-26-21-48-35-20-19-46-12-44-11-45-60-14-47-5-6-0
Cost: 1918
0-3-64-28-50-54-27-26-21-48-35-20-19-46-45-12-44-11-15-13-16-17-18-1-37-0
0-56-32-29-51-24-23-49-22-25-63-52-30-53-31-55-33-0
0-38-2-4-39-7-36-8-40-41-42-43-9-10-60-14-47-5-6-58-34-0
Cost: 1918
0-3-64-28-50-54-27-26-21-48-35-20-19-46-45-12-44-11-15-13-16-17-18-1-37-0
0-56-32-29-51-24-23-49-22-25-63-52-30-53-31-55-33-0
0-38-2-4-39-7-36-8-40-41-42-43-9-10-60-14-47-5-6-58-34-0
Cost: 1917
0-38-2-4-39-5-7-10-60-13-16-17-18-61-50-54-28-1-37-0
0-34-32-27-26-21-48-49-22-23-24-25-63-29-52-51-30-53-31-55-33-0
0-3-15-36-8-40-41-9-42-43-44-11-12-35-20-19-46-45-14-47-6-58-56-0
